155 7 55 48 8 34 136 189 177 200 197 
87 145 112 115 139 187 185 31 126 156 42 
51 92 60 125 84 39 111 40 52 
63 44 50 3 151 182 172 97 61 
120 27 
196 30 173 89 94 178 19 114 23 159 74 70 110 
106 184 71 165 129 144 186 179 77 
18 72 137 80 175 138 96 65 191 59 
4 85 171 122 90 118 183 82 75 
140 81 35 2 104 98 95 37 29 45 
157 41 67 135 166 193 56 33 49 28 91 
117 150 38 100 121 181 154 78 148 
132 153 66 169 170 192 105 24 198 
46 73 152 162 142 53 101 174 107 108 
158 12 163 62 194 32 22 47 43 119 
199 113 76 146 124 103 134 164 141 10 
13 143 14 195 160 25 180 167 83 
149 1 26 123 5 109 116 79 102 
57 131 176 69 88 9 128 
188 15 147 93 133 64 130 11 190 
168 161 16 21 58 127 
20 54 99 17 
36 68 86 
6 

